benchmarks_vrp/CMT2/tsp_classic/CMT2_0.vrp
NAME: CMT2_0
TYPE: CVRP
COMMENT: 835.26 - Cluster Nr.0
DIMENSION: 10
CAPACITY: 140
EDGE_WEIGHT_TYPE: EUC_2D
NODE_COORD_TYPE: TWOD_COORDS
NODE_COORD_SECTION: 
1 15 14
10 15 5
4 20 30
2 30 20
3 22 22
8 26 13
6 16 19
7 40 40
9 12 17
5 27 24
DEPOT_SECTION: 
7
-1
DEMAND_SECTION: 
3 18
8 12
9 15
10 28
4 11
6 18
7 0
2 18
1 11
5 6
EOF
