benchmarks_vrp/CMT2/tsp_classic/CMT2_0.tour
NAME: CMT2_0 solution
TYPE: TOUR
TOUR_SECTION:
7 4 3 6 9 1 10 8 2 5 -1
-1
EOF